BAYES
100
2 2 2 2 2 2 2 2 2 2 2 2 2 2 2 2 2 2 2 2 2 2 2 2 2 2 2 2 2 2 2 2 2 2 2 2 2 2 2 2 2 2 2 2 2 2 2 2 2 2 2 2 2 2 2 2 2 2 2 2 2 2 2 2 2 2 2 2 2 2 2 2 2 2 2 2 2 2 2 2 2 2 2 2 2 2 2 2 2 2 2 2 2 2 2 2 2 2 2 2
100
1 0
2 0 1
2 1 2
2 2 3
2 3 4
2 4 5
2 5 6
2 6 7
2 7 8
2 8 9
2 0 10
3 1 10 11
3 2 11 12
3 3 12 13
3 4 13 14
3 5 14 15
3 6 15 16
3 7 16 17
3 8 17 18
3 9 18 19
2 10 20
3 11 20 21
3 12 21 22
3 13 22 23
3 14 23 24
3 15 24 25
3 16 25 26
3 17 26 27
3 18 27 28
3 19 28 29
2 20 30
3 21 30 31
3 22 31 32
3 23 32 33
3 24 33 34
3 25 34 35
3 26 35 36
3 27 36 37
3 28 37 38
3 29 38 39
2 30 40
3 31 40 41
3 32 41 42
3 33 42 43
3 34 43 44
3 35 44 45
3 36 45 46
3 37 46 47
3 38 47 48
3 39 48 49
2 40 50
3 41 50 51
3 42 51 52
3 43 52 53
3 44 53 54
3 45 54 55
3 46 55 56
3 47 56 57
3 48 57 58
3 49 58 59
2 50 60
3 51 60 61
3 52 61 62
3 53 62 63
3 54 63 64
3 55 64 65
3 56 65 66
3 57 66 67
3 58 67 68
3 59 68 69
2 60 70
3 61 70 71
3 62 71 72
3 63 72 73
3 64 73 74
3 65 74 75
3 66 75 76
3 67 76 77
3 68 77 78
3 69 78 79
2 70 80
3 71 80 81
3 72 81 82
3 73 82 83
3 74 83 84
3 75 84 85
3 76 85 86
3 77 86 87
3 78 87 88
3 79 88 89
2 80 90
3 81 90 91
3 82 91 92
3 83 92 93
3 84 93 94
3 85 94 95
3 86 95 96
3 87 96 97
3 88 97 98
3 89 98 99

2
0.688118 0.311882
4
1.0 0.0 0.0 1.0
4
0.0 1.0 1.0 0.0
4
0.0 1.0 1.0 0.0
4
0.64003 0.35997 0.463174 0.536826
4
0.478589 0.521411 0.615693 0.384307
4
0.0 1.0 1.0 0.0
4
0.853361 0.146639 0.465053 0.534947
4
0.641405 0.358595 0.623771 0.376229
4
0.0 1.0 1.0 0.0
4
0.465633 0.534367 0.349811 0.650189
8
1.0 0.0 1.0 0.0 0.0 1.0 1.0 0.0
8
0.989669 0.0103306 0.192133 0.807867 0.201157 0.798843 0.880726 0.119274
8
1.0 0.0 0.0 1.0 1.0 0.0 0.0 1.0
8
0.612329 0.387671 0.484447 0.515553 0.887061 0.112939 0.194684 0.805316
8
1.0 0.0 1.0 0.0 0.0 1.0 1.0 0.0
8
0.227045 0.772955 0.133961 0.866039 0.23701 0.76299 0.576856 0.423144
8
1.0 0.0 0.0 1.0 0.0 1.0 0.0 1.0
8
0.428409 0.571591 0.380647 0.619353 0.983495 0.0165047 0.309135 0.690865
8
0.389075 0.610925 0.896846 0.103154 0.00809691 0.991903 0.257829 0.742171
4
0.0 1.0 1.0 0.0
8
0.286183 0.713817 0.81511 0.18489 0.935877 0.0641227 0.0266053 0.973395
8
1.0 0.0 1.0 0.0 1.0 0.0 0.0 1.0
8
0.892316 0.107684 0.676521 0.323479 0.212333 0.787667 0.362205 0.637795
8
0.0 1.0 0.0 1.0 1.0 0.0 1.0 0.0
8
0.0 1.0 1.0 0.0 1.0 0.0 0.0 1.0
8
1.0 0.0 0.0 1.0 0.0 1.0 1.0 0.0
8
0.0 1.0 1.0 0.0 1.0 0.0 0.0 1.0
8
1.0 0.0 0.0 1.0 0.0 1.0 0.0 1.0
8
1.0 0.0 0.0 1.0 1.0 0.0 1.0 0.0
4
0.229695 0.770305 0.451359 0.548641
8
1.0 0.0 0.0 1.0 1.0 0.0 1.0 0.0
8
1.0 0.0 0.0 1.0 1.0 0.0 0.0 1.0
8
0.0 1.0 1.0 0.0 0.0 1.0 0.0 1.0
8
0.682308 0.317692 0.100311 0.899689 0.788103 0.211897 0.351075 0.648925
8
0.34378 0.65622 0.778197 0.221803 0.153612 0.846388 0.534935 0.465065
8
0.0 1.0 1.0 0.0 0.0 1.0 0.0 1.0
8
1.0 0.0 1.0 0.0 1.0 0.0 0.0 1.0
8
0.224236 0.775764 0.983312 0.0166878 0.0646805 0.935319 0.91 0.0900001
8
1.0 0.0 0.0 1.0 0.0 1.0 1.0 0.0
4
1.0 0.0 0.0 1.0
8
0.859183 0.140817 0.61466 0.38534 0.79241 0.20759 0.202963 0.797037
8
1.0 0.0 0.0 1.0 0.0 1.0 1.0 0.0
8
0.269769 0.730231 0.328793 0.671207 0.0661018 0.933898 0.531635 0.468365
8
1.0 0.0 0.0 1.0 0.0 1.0 0.0 1.0
8
0.568759 0.431241 0.639676 0.360324 0.0683246 0.931675 0.392104 0.607896
8
0.0 1.0 0.0 1.0 0.0 1.0 1.0 0.0
8
1.0 0.0 1.0 0.0 1.0 0.0 0.0 1.0
8
0.800632 0.199368 0.941019 0.0589809 0.411196 0.588804 0.823192 0.176808
8
0.680966 0.319034 0.151985 0.848015 0.683441 0.316559 0.2126 0.7874
4
0.420894 0.579106 0.718041 0.281959
8
0.924972 0.0750276 0.447718 0.552282 0.479546 0.520454 0.493732 0.506268
8
1.0 0.0 1.0 0.0 0.0 1.0 1.0 0.0
8
0.0 1.0 0.0 1.0 0.0 1.0 1.0 0.0
8
0.979642 0.0203581 0.501548 0.498452 0.559213 0.440787 0.780274 0.219726
8
1.0 0.0 0.0 1.0 1.0 0.0 0.0 1.0
8
0.743347 0.256653 0.863976 0.136024 0.267441 0.732559 0.164241 0.835759
8
0.771552 0.228448 0.0892131 0.910787 0.0297349 0.970265 0.251099 0.748901
8
0.117129 0.882871 0.79897 0.20103 0.46878 0.53122 0.27442 0.72558
8
0.531611 0.468389 0.572687 0.427313 0.107104 0.892896 0.656643 0.343357
4
0.745613 0.254387 0.636285 0.363715
8
1.0 0.0 1.0 0.0 1.0 0.0 0.0 1.0
8
1.0 0.0 0.0 1.0 0.0 1.0 0.0 1.0
8
1.0 0.0 1.0 0.0 0.0 1.0 1.0 0.0
8
0.0 1.0 1.0 0.0 0.0 1.0 0.0 1.0
8
0.793888 0.206112 0.860979 0.139021 0.45527 0.54473 0.366576 0.633424
8
0.111913 0.888087 0.237689 0.762311 0.713696 0.286304 0.748198 0.251802
8
0.0185226 0.981477 0.164757 0.835243 0.425577 0.574423 0.293759 0.706241
8
0.0 1.0 1.0 0.0 0.0 1.0 0.0 1.0
8
1.0 0.0 1.0 0.0 0.0 1.0 1.0 0.0
4
0.785901 0.214099 0.883206 0.116794
8
0.0 1.0 1.0 0.0 1.0 0.0 0.0 1.0
8
0.407653 0.592347 0.465833 0.534167 0.576805 0.423195 0.519565 0.480435
8
0.290502 0.709498 0.267763 0.732237 0.313872 0.686128 0.309024 0.690976
8
0.0 1.0 0.0 1.0 1.0 0.0 0.0 1.0
8
0.577557 0.422443 0.959351 0.0406489 0.83411 0.16589 0.580728 0.419272
8
0.217671 0.782329 0.398368 0.601632 0.235109 0.764891 0.00357216 0.996428
8
0.0 1.0 0.0 1.0 0.0 1.0 1.0 0.0
8
1.0 0.0 0.0 1.0 0.0 1.0 0.0 1.0
8
0.505346 0.494654 0.411198 0.588802 0.891426 0.108574 0.81437 0.18563
4
0.630875 0.369125 0.417153 0.582847
8
1.0 0.0 0.0 1.0 0.0 1.0 1.0 0.0
8
0.0 1.0 0.0 1.0 1.0 0.0 0.0 1.0
8
0.295659 0.704341 0.299246 0.700754 0.790592 0.209408 0.604601 0.395399
8
1.0 0.0 0.0 1.0 0.0 1.0 1.0 0.0
8
0.181447 0.818553 0.774112 0.225888 0.464385 0.535615 0.686794 0.313206
8
0.0 1.0 0.0 1.0 0.0 1.0 1.0 0.0
8
0.490046 0.509954 0.657721 0.342279 0.158623 0.841377 0.528621 0.471379
8
1.0 0.0 1.0 0.0 1.0 0.0 0.0 1.0
8
0.0 1.0 1.0 0.0 0.0 1.0 0.0 1.0
4
1.0 0.0 0.0 1.0
8
0.438185 0.561815 0.760008 0.239992 0.534593 0.465407 0.325016 0.674984
8
0.308704 0.691296 0.7894 0.2106 0.628249 0.371751 0.494014 0.505986
8
1.0 0.0 0.0 1.0 1.0 0.0 0.0 1.0
8
0.0 1.0 0.0 1.0 1.0 0.0 0.0 1.0
8
0.0 1.0 1.0 0.0 1.0 0.0 1.0 0.0
8
0.785303 0.214697 0.320072 0.679928 0.661106 0.338894 0.210688 0.789312
8
0.0 1.0 1.0 0.0 0.0 1.0 0.0 1.0
8
0.408318 0.591682 0.763289 0.236711 0.443191 0.556809 0.902332 0.0976677
8
0.572605 0.427395 0.425373 0.574627 0.0403966 0.959603 0.620335 0.379665